Minimize
	value: tt

Subject to
tt + 1000 s_1_1 > 0.0
tt - t_1_1 - 1002.067131 s_1_1  + 1.033566 s_1_8  + 1.033566 s_1_7  > -990.892500
tt + 1000 s_2_1 > 0.0
tt - t_2_1 - 1001.975672 s_2_1  + 0.987836 s_2_8  + 0.987836 s_2_7  > -992.446841
tt + 1000 s_1_2 > 0.0
tt - t_1_2 - 1001.033566 s_1_2  + 1.033566 s_1_7  > -991.151125
tt + 1000 s_2_2 > 0.0
tt - t_2_2 - 1000.987836 s_2_2  + 0.987836 s_2_7  > -992.348482
tt + 1000 s_1_3 > 0.0
tt - t_1_3 - 1002.067131 s_1_3  + 1.033566 s_1_8  + 1.033566 s_1_7  > -998.961622
tt + 1000 s_2_3 > 0.0
tt - t_2_3 - 1001.975672 s_2_3  + 0.987836 s_2_8  + 0.987836 s_2_7  > -998.127460
tt + 1000 s_1_4 > 0.0
tt - t_1_4 - 1001.033566 s_1_4  + 1.033566 s_1_7  > -998.193411
tt + 1000 s_2_4 > 0.0
tt - t_2_4 - 1000.987836 s_2_4  + 0.987836 s_2_7  > -997.088036
tt + 1000 s_1_5 > 0.0
tt - t_1_5 - 1001.033566 s_1_5  + 1.033566 s_1_8  > -996.035400
tt + 1000 s_2_5 > 0.0
tt - t_2_5 - 1000.987836 s_2_5  + 0.987836 s_2_8  > -996.107681
tt + 1000 s_1_6 > 0.0
tt - t_1_6 - 1006.201394 s_1_6  + 1.033566 s_1_4  + 1.033566 s_1_3  + 1.033566 s_1_5  + 1.033566 s_1_7  + 1.033566 s_1_2  + 1.033566 s_1_1  > -999.319700
tt + 1000 s_2_6 > 0.0
tt - t_2_6 - 1005.927015 s_2_6  + 0.987836 s_2_4  + 0.987836 s_2_3  + 0.987836 s_2_5  + 0.987836 s_2_7  + 0.987836 s_2_2  + 0.987836 s_2_1  > -999.227333
tt + 1000 s_1_7 > 0.0
tt - t_1_7 - 1000.000000 s_1_7  > -987.819000
tt + 1000 s_2_7 > 0.0
tt - t_2_7 - 1000.000000 s_2_7  > -994.613486
tt + 1000 s_1_8 > 0.0
tt - t_1_8 - 1000.000000 s_1_8  > -988.027400
tt + 1000 s_2_8 > 0.0
tt - t_2_8 - 1000.000000 s_2_8  > -995.182125
s_1_1 + s_2_1 = 1
s_1_2 + s_2_2 = 1
s_1_3 + s_2_3 = 1
s_1_4 + s_2_4 = 1
s_1_5 + s_2_5 = 1
s_1_6 + s_2_6 = 1
s_1_7 + s_2_7 = 1
s_1_8 + s_2_8 = 1
s_1_1 + s_1_2 + 1000 r_1_1_2 >= 2
- s_1_1 - s_1_2 - 1000 r_1_1_2 >= -1001
t_1_1 - t_1_2 - 1000.000000 u_1_1_2 - 1.033566 s_1_2  + 1.033566 s_1_7  + 2000.000000 r_1_1_2 > -991.151125
s_2_1 + s_2_2 + 1000 r_2_1_2 >= 2
- s_2_1 - s_2_2 - 1000 r_2_1_2 >= -1001
t_2_1 - t_2_2 - 1000.000000 u_2_1_2 - 0.987836 s_2_2  + 0.987836 s_2_7  + 2000.000000 r_2_1_2 > -992.348482
s_1_1 + s_1_3 + 1000 r_1_1_3 >= 2
- s_1_1 - s_1_3 - 1000 r_1_1_3 >= -1001
t_1_1 - t_1_3 - 1000.000000 u_1_1_3 - 2.067131 s_1_3  + 1.033566 s_1_8  + 1.033566 s_1_7  + 2000.000000 r_1_1_3 > -998.961622
s_2_1 + s_2_3 + 1000 r_2_1_3 >= 2
- s_2_1 - s_2_3 - 1000 r_2_1_3 >= -1001
t_2_1 - t_2_3 - 1000.000000 u_2_1_3 - 1.975672 s_2_3  + 0.987836 s_2_8  + 0.987836 s_2_7  + 2000.000000 r_2_1_3 > -998.127460
s_1_1 + s_1_4 + 1000 r_1_1_4 >= 2
- s_1_1 - s_1_4 - 1000 r_1_1_4 >= -1001
t_1_1 - t_1_4 - 1000.000000 u_1_1_4 - 1.033566 s_1_4  + 1.033566 s_1_7  + 2000.000000 r_1_1_4 > -998.193411
s_2_1 + s_2_4 + 1000 r_2_1_4 >= 2
- s_2_1 - s_2_4 - 1000 r_2_1_4 >= -1001
t_2_1 - t_2_4 - 1000.000000 u_2_1_4 - 0.987836 s_2_4  + 0.987836 s_2_7  + 2000.000000 r_2_1_4 > -997.088036
s_1_1 + s_1_5 + 1000 r_1_1_5 >= 2
- s_1_1 - s_1_5 - 1000 r_1_1_5 >= -1001
t_1_1 - t_1_5 - 1000.000000 u_1_1_5 - 1.033566 s_1_5  + 1.033566 s_1_8  + 2000.000000 r_1_1_5 > -996.035400
s_2_1 + s_2_5 + 1000 r_2_1_5 >= 2
- s_2_1 - s_2_5 - 1000 r_2_1_5 >= -1001
t_2_1 - t_2_5 - 1000.000000 u_2_1_5 - 0.987836 s_2_5  + 0.987836 s_2_8  + 2000.000000 r_2_1_5 > -996.107681
t_1_6 - t_1_1 - 1002.067131 s_1_1  + 1.033566 s_1_8  + 1.033566 s_1_7  > -990.892500
t_1_6 - t_2_1 - 1001.975672 s_2_1  + 0.987836 s_2_8  + 0.987836 s_2_7  > -992.446841
t_2_6 - t_1_1 - 1002.067131 s_1_1  + 1.033566 s_1_8  + 1.033566 s_1_7  > -990.892500
t_2_6 - t_2_1 - 1001.975672 s_2_1  + 0.987836 s_2_8  + 0.987836 s_2_7  > -992.446841
t_1_1 - t_1_7 - 1000.000000 s_1_7  > -987.819000
t_1_1 - t_2_7 - 1000.000000 s_2_7  > -994.613486
t_2_1 - t_1_7 - 1000.000000 s_1_7  > -987.819000
t_2_1 - t_2_7 - 1000.000000 s_2_7  > -994.613486
t_1_1 - t_1_8 - 1000.000000 s_1_8  > -988.027400
t_1_1 - t_2_8 - 1000.000000 s_2_8  > -995.182125
t_2_1 - t_1_8 - 1000.000000 s_1_8  > -988.027400
t_2_1 - t_2_8 - 1000.000000 s_2_8  > -995.182125
s_1_2 + s_1_1 + 1000 r_1_1_2 >= 2
- s_1_2 - s_1_1 - 1000 r_1_1_2 >= -1001
t_1_2 - t_1_1 + 1000.000000 u_1_1_2 - 2.067131 s_1_1  + 1.033566 s_1_8  + 1.033566 s_1_7  + 2000.000000 r_1_1_2 > 9.107500
s_2_2 + s_2_1 + 1000 r_2_1_2 >= 2
- s_2_2 - s_2_1 - 1000 r_2_1_2 >= -1001
t_2_2 - t_2_1 + 1000.000000 u_2_1_2 - 1.975672 s_2_1  + 0.987836 s_2_8  + 0.987836 s_2_7  + 2000.000000 r_2_1_2 > 7.553159
s_1_2 + s_1_3 + 1000 r_1_2_3 >= 2
- s_1_2 - s_1_3 - 1000 r_1_2_3 >= -1001
t_1_2 - t_1_3 - 1000.000000 u_1_2_3 - 2.067131 s_1_3  + 1.033566 s_1_8  + 1.033566 s_1_7  + 2000.000000 r_1_2_3 > -998.961622
s_2_2 + s_2_3 + 1000 r_2_2_3 >= 2
- s_2_2 - s_2_3 - 1000 r_2_2_3 >= -1001
t_2_2 - t_2_3 - 1000.000000 u_2_2_3 - 1.975672 s_2_3  + 0.987836 s_2_8  + 0.987836 s_2_7  + 2000.000000 r_2_2_3 > -998.127460
s_1_2 + s_1_4 + 1000 r_1_2_4 >= 2
- s_1_2 - s_1_4 - 1000 r_1_2_4 >= -1001
t_1_2 - t_1_4 - 1000.000000 u_1_2_4 - 1.033566 s_1_4  + 1.033566 s_1_7  + 2000.000000 r_1_2_4 > -998.193411
s_2_2 + s_2_4 + 1000 r_2_2_4 >= 2
- s_2_2 - s_2_4 - 1000 r_2_2_4 >= -1001
t_2_2 - t_2_4 - 1000.000000 u_2_2_4 - 0.987836 s_2_4  + 0.987836 s_2_7  + 2000.000000 r_2_2_4 > -997.088036
s_1_2 + s_1_5 + 1000 r_1_2_5 >= 2
- s_1_2 - s_1_5 - 1000 r_1_2_5 >= -1001
t_1_2 - t_1_5 - 1000.000000 u_1_2_5 - 1.033566 s_1_5  + 1.033566 s_1_8  + 2000.000000 r_1_2_5 > -996.035400
s_2_2 + s_2_5 + 1000 r_2_2_5 >= 2
- s_2_2 - s_2_5 - 1000 r_2_2_5 >= -1001
t_2_2 - t_2_5 - 1000.000000 u_2_2_5 - 0.987836 s_2_5  + 0.987836 s_2_8  + 2000.000000 r_2_2_5 > -996.107681
t_1_6 - t_1_2 - 1001.033566 s_1_2  + 1.033566 s_1_7  > -991.151125
t_1_6 - t_2_2 - 1000.987836 s_2_2  + 0.987836 s_2_7  > -992.348482
t_2_6 - t_1_2 - 1001.033566 s_1_2  + 1.033566 s_1_7  > -991.151125
t_2_6 - t_2_2 - 1000.987836 s_2_2  + 0.987836 s_2_7  > -992.348482
t_1_2 - t_1_7 - 1000.000000 s_1_7  > -987.819000
t_1_2 - t_2_7 - 1000.000000 s_2_7  > -994.613486
t_2_2 - t_1_7 - 1000.000000 s_1_7  > -987.819000
t_2_2 - t_2_7 - 1000.000000 s_2_7  > -994.613486
s_1_2 + s_1_8 + 1000 r_1_2_8 >= 2
- s_1_2 - s_1_8 - 1000 r_1_2_8 >= -1001
t_1_2 - t_1_8 - 1000.000000 u_1_2_8 - 0.000000 s_1_8  + 2000.000000 r_1_2_8 > -988.027400
s_2_2 + s_2_8 + 1000 r_2_2_8 >= 2
- s_2_2 - s_2_8 - 1000 r_2_2_8 >= -1001
t_2_2 - t_2_8 - 1000.000000 u_2_2_8 - 0.000000 s_2_8  + 2000.000000 r_2_2_8 > -995.182125
s_1_3 + s_1_1 + 1000 r_1_1_3 >= 2
- s_1_3 - s_1_1 - 1000 r_1_1_3 >= -1001
t_1_3 - t_1_1 + 1000.000000 u_1_1_3 - 2.067131 s_1_1  + 1.033566 s_1_8  + 1.033566 s_1_7  + 2000.000000 r_1_1_3 > 9.107500
s_2_3 + s_2_1 + 1000 r_2_1_3 >= 2
- s_2_3 - s_2_1 - 1000 r_2_1_3 >= -1001
t_2_3 - t_2_1 + 1000.000000 u_2_1_3 - 1.975672 s_2_1  + 0.987836 s_2_8  + 0.987836 s_2_7  + 2000.000000 r_2_1_3 > 7.553159
s_1_3 + s_1_2 + 1000 r_1_2_3 >= 2
- s_1_3 - s_1_2 - 1000 r_1_2_3 >= -1001
t_1_3 - t_1_2 + 1000.000000 u_1_2_3 - 1.033566 s_1_2  + 1.033566 s_1_7  + 2000.000000 r_1_2_3 > 8.848875
s_2_3 + s_2_2 + 1000 r_2_2_3 >= 2
- s_2_3 - s_2_2 - 1000 r_2_2_3 >= -1001
t_2_3 - t_2_2 + 1000.000000 u_2_2_3 - 0.987836 s_2_2  + 0.987836 s_2_7  + 2000.000000 r_2_2_3 > 7.651518
s_1_3 + s_1_4 + 1000 r_1_3_4 >= 2
- s_1_3 - s_1_4 - 1000 r_1_3_4 >= -1001
t_1_3 - t_1_4 - 1000.000000 u_1_3_4 - 1.033566 s_1_4  + 1.033566 s_1_7  + 2000.000000 r_1_3_4 > -998.193411
s_2_3 + s_2_4 + 1000 r_2_3_4 >= 2
- s_2_3 - s_2_4 - 1000 r_2_3_4 >= -1001
t_2_3 - t_2_4 - 1000.000000 u_2_3_4 - 0.987836 s_2_4  + 0.987836 s_2_7  + 2000.000000 r_2_3_4 > -997.088036
s_1_3 + s_1_5 + 1000 r_1_3_5 >= 2
- s_1_3 - s_1_5 - 1000 r_1_3_5 >= -1001
t_1_3 - t_1_5 - 1000.000000 u_1_3_5 - 1.033566 s_1_5  + 1.033566 s_1_8  + 2000.000000 r_1_3_5 > -996.035400
s_2_3 + s_2_5 + 1000 r_2_3_5 >= 2
- s_2_3 - s_2_5 - 1000 r_2_3_5 >= -1001
t_2_3 - t_2_5 - 1000.000000 u_2_3_5 - 0.987836 s_2_5  + 0.987836 s_2_8  + 2000.000000 r_2_3_5 > -996.107681
t_1_6 - t_1_3 - 1002.067131 s_1_3  + 1.033566 s_1_8  + 1.033566 s_1_7  > -998.961622
t_1_6 - t_2_3 - 1001.975672 s_2_3  + 0.987836 s_2_8  + 0.987836 s_2_7  > -998.127460
t_2_6 - t_1_3 - 1002.067131 s_1_3  + 1.033566 s_1_8  + 1.033566 s_1_7  > -998.961622
t_2_6 - t_2_3 - 1001.975672 s_2_3  + 0.987836 s_2_8  + 0.987836 s_2_7  > -998.127460
t_1_3 - t_1_7 - 1000.000000 s_1_7  > -987.819000
t_1_3 - t_2_7 - 1000.000000 s_2_7  > -994.613486
t_2_3 - t_1_7 - 1000.000000 s_1_7  > -987.819000
t_2_3 - t_2_7 - 1000.000000 s_2_7  > -994.613486
t_1_3 - t_1_8 - 1000.000000 s_1_8  > -988.027400
t_1_3 - t_2_8 - 1000.000000 s_2_8  > -995.182125
t_2_3 - t_1_8 - 1000.000000 s_1_8  > -988.027400
t_2_3 - t_2_8 - 1000.000000 s_2_8  > -995.182125
s_1_4 + s_1_1 + 1000 r_1_1_4 >= 2
- s_1_4 - s_1_1 - 1000 r_1_1_4 >= -1001
t_1_4 - t_1_1 + 1000.000000 u_1_1_4 - 2.067131 s_1_1  + 1.033566 s_1_8  + 1.033566 s_1_7  + 2000.000000 r_1_1_4 > 9.107500
s_2_4 + s_2_1 + 1000 r_2_1_4 >= 2
- s_2_4 - s_2_1 - 1000 r_2_1_4 >= -1001
t_2_4 - t_2_1 + 1000.000000 u_2_1_4 - 1.975672 s_2_1  + 0.987836 s_2_8  + 0.987836 s_2_7  + 2000.000000 r_2_1_4 > 7.553159
s_1_4 + s_1_2 + 1000 r_1_2_4 >= 2
- s_1_4 - s_1_2 - 1000 r_1_2_4 >= -1001
t_1_4 - t_1_2 + 1000.000000 u_1_2_4 - 1.033566 s_1_2  + 1.033566 s_1_7  + 2000.000000 r_1_2_4 > 8.848875
s_2_4 + s_2_2 + 1000 r_2_2_4 >= 2
- s_2_4 - s_2_2 - 1000 r_2_2_4 >= -1001
t_2_4 - t_2_2 + 1000.000000 u_2_2_4 - 0.987836 s_2_2  + 0.987836 s_2_7  + 2000.000000 r_2_2_4 > 7.651518
s_1_4 + s_1_3 + 1000 r_1_3_4 >= 2
- s_1_4 - s_1_3 - 1000 r_1_3_4 >= -1001
t_1_4 - t_1_3 + 1000.000000 u_1_3_4 - 2.067131 s_1_3  + 1.033566 s_1_8  + 1.033566 s_1_7  + 2000.000000 r_1_3_4 > 1.038378
s_2_4 + s_2_3 + 1000 r_2_3_4 >= 2
- s_2_4 - s_2_3 - 1000 r_2_3_4 >= -1001
t_2_4 - t_2_3 + 1000.000000 u_2_3_4 - 1.975672 s_2_3  + 0.987836 s_2_8  + 0.987836 s_2_7  + 2000.000000 r_2_3_4 > 1.872540
s_1_4 + s_1_5 + 1000 r_1_4_5 >= 2
- s_1_4 - s_1_5 - 1000 r_1_4_5 >= -1001
t_1_4 - t_1_5 - 1000.000000 u_1_4_5 - 1.033566 s_1_5  + 1.033566 s_1_8  + 2000.000000 r_1_4_5 > -996.035400
s_2_4 + s_2_5 + 1000 r_2_4_5 >= 2
- s_2_4 - s_2_5 - 1000 r_2_4_5 >= -1001
t_2_4 - t_2_5 - 1000.000000 u_2_4_5 - 0.987836 s_2_5  + 0.987836 s_2_8  + 2000.000000 r_2_4_5 > -996.107681
t_1_6 - t_1_4 - 1001.033566 s_1_4  + 1.033566 s_1_7  > -998.193411
t_1_6 - t_2_4 - 1000.987836 s_2_4  + 0.987836 s_2_7  > -997.088036
t_2_6 - t_1_4 - 1001.033566 s_1_4  + 1.033566 s_1_7  > -998.193411
t_2_6 - t_2_4 - 1000.987836 s_2_4  + 0.987836 s_2_7  > -997.088036
t_1_4 - t_1_7 - 1000.000000 s_1_7  > -987.819000
t_1_4 - t_2_7 - 1000.000000 s_2_7  > -994.613486
t_2_4 - t_1_7 - 1000.000000 s_1_7  > -987.819000
t_2_4 - t_2_7 - 1000.000000 s_2_7  > -994.613486
s_1_4 + s_1_8 + 1000 r_1_4_8 >= 2
- s_1_4 - s_1_8 - 1000 r_1_4_8 >= -1001
t_1_4 - t_1_8 - 1000.000000 u_1_4_8 - 0.000000 s_1_8  + 2000.000000 r_1_4_8 > -988.027400
s_2_4 + s_2_8 + 1000 r_2_4_8 >= 2
- s_2_4 - s_2_8 - 1000 r_2_4_8 >= -1001
t_2_4 - t_2_8 - 1000.000000 u_2_4_8 - 0.000000 s_2_8  + 2000.000000 r_2_4_8 > -995.182125
s_1_5 + s_1_1 + 1000 r_1_1_5 >= 2
- s_1_5 - s_1_1 - 1000 r_1_1_5 >= -1001
t_1_5 - t_1_1 + 1000.000000 u_1_1_5 - 2.067131 s_1_1  + 1.033566 s_1_8  + 1.033566 s_1_7  + 2000.000000 r_1_1_5 > 9.107500
s_2_5 + s_2_1 + 1000 r_2_1_5 >= 2
- s_2_5 - s_2_1 - 1000 r_2_1_5 >= -1001
t_2_5 - t_2_1 + 1000.000000 u_2_1_5 - 1.975672 s_2_1  + 0.987836 s_2_8  + 0.987836 s_2_7  + 2000.000000 r_2_1_5 > 7.553159
s_1_5 + s_1_2 + 1000 r_1_2_5 >= 2
- s_1_5 - s_1_2 - 1000 r_1_2_5 >= -1001
t_1_5 - t_1_2 + 1000.000000 u_1_2_5 - 1.033566 s_1_2  + 1.033566 s_1_7  + 2000.000000 r_1_2_5 > 8.848875
s_2_5 + s_2_2 + 1000 r_2_2_5 >= 2
- s_2_5 - s_2_2 - 1000 r_2_2_5 >= -1001
t_2_5 - t_2_2 + 1000.000000 u_2_2_5 - 0.987836 s_2_2  + 0.987836 s_2_7  + 2000.000000 r_2_2_5 > 7.651518
s_1_5 + s_1_3 + 1000 r_1_3_5 >= 2
- s_1_5 - s_1_3 - 1000 r_1_3_5 >= -1001
t_1_5 - t_1_3 + 1000.000000 u_1_3_5 - 2.067131 s_1_3  + 1.033566 s_1_8  + 1.033566 s_1_7  + 2000.000000 r_1_3_5 > 1.038378
s_2_5 + s_2_3 + 1000 r_2_3_5 >= 2
- s_2_5 - s_2_3 - 1000 r_2_3_5 >= -1001
t_2_5 - t_2_3 + 1000.000000 u_2_3_5 - 1.975672 s_2_3  + 0.987836 s_2_8  + 0.987836 s_2_7  + 2000.000000 r_2_3_5 > 1.872540
s_1_5 + s_1_4 + 1000 r_1_4_5 >= 2
- s_1_5 - s_1_4 - 1000 r_1_4_5 >= -1001
t_1_5 - t_1_4 + 1000.000000 u_1_4_5 - 1.033566 s_1_4  + 1.033566 s_1_7  + 2000.000000 r_1_4_5 > 1.806589
s_2_5 + s_2_4 + 1000 r_2_4_5 >= 2
- s_2_5 - s_2_4 - 1000 r_2_4_5 >= -1001
t_2_5 - t_2_4 + 1000.000000 u_2_4_5 - 0.987836 s_2_4  + 0.987836 s_2_7  + 2000.000000 r_2_4_5 > 2.911964
t_1_6 - t_1_5 - 1001.033566 s_1_5  + 1.033566 s_1_8  > -996.035400
t_1_6 - t_2_5 - 1000.987836 s_2_5  + 0.987836 s_2_8  > -996.107681
t_2_6 - t_1_5 - 1001.033566 s_1_5  + 1.033566 s_1_8  > -996.035400
t_2_6 - t_2_5 - 1000.987836 s_2_5  + 0.987836 s_2_8  > -996.107681
s_1_5 + s_1_7 + 1000 r_1_5_7 >= 2
- s_1_5 - s_1_7 - 1000 r_1_5_7 >= -1001
t_1_5 - t_1_7 - 1000.000000 u_1_5_7 - 0.000000 s_1_7  + 2000.000000 r_1_5_7 > -987.819000
s_2_5 + s_2_7 + 1000 r_2_5_7 >= 2
- s_2_5 - s_2_7 - 1000 r_2_5_7 >= -1001
t_2_5 - t_2_7 - 1000.000000 u_2_5_7 - 0.000000 s_2_7  + 2000.000000 r_2_5_7 > -994.613486
t_1_5 - t_1_8 - 1000.000000 s_1_8  > -988.027400
t_1_5 - t_2_8 - 1000.000000 s_2_8  > -995.182125
t_2_5 - t_1_8 - 1000.000000 s_1_8  > -988.027400
t_2_5 - t_2_8 - 1000.000000 s_2_8  > -995.182125
t_1_6 - t_1_7 - 1000.000000 s_1_7  > -987.819000
t_1_6 - t_2_7 - 1000.000000 s_2_7  > -994.613486
t_2_6 - t_1_7 - 1000.000000 s_1_7  > -987.819000
t_2_6 - t_2_7 - 1000.000000 s_2_7  > -994.613486
s_1_7 + s_1_5 + 1000 r_1_5_7 >= 2
- s_1_7 - s_1_5 - 1000 r_1_5_7 >= -1001
t_1_7 - t_1_5 + 1000.000000 u_1_5_7 - 1.033566 s_1_5  + 1.033566 s_1_8  + 2000.000000 r_1_5_7 > 3.964600
s_2_7 + s_2_5 + 1000 r_2_5_7 >= 2
- s_2_7 - s_2_5 - 1000 r_2_5_7 >= -1001
t_2_7 - t_2_5 + 1000.000000 u_2_5_7 - 0.987836 s_2_5  + 0.987836 s_2_8  + 2000.000000 r_2_5_7 > 3.892319
s_1_7 + s_1_8 + 1000 r_1_7_8 >= 2
- s_1_7 - s_1_8 - 1000 r_1_7_8 >= -1001
t_1_7 - t_1_8 - 1000.000000 u_1_7_8 - 0.000000 s_1_8  + 2000.000000 r_1_7_8 > -988.027400
s_2_7 + s_2_8 + 1000 r_2_7_8 >= 2
- s_2_7 - s_2_8 - 1000 r_2_7_8 >= -1001
t_2_7 - t_2_8 - 1000.000000 u_2_7_8 - 0.000000 s_2_8  + 2000.000000 r_2_7_8 > -995.182125
s_1_8 + s_1_2 + 1000 r_1_2_8 >= 2
- s_1_8 - s_1_2 - 1000 r_1_2_8 >= -1001
t_1_8 - t_1_2 + 1000.000000 u_1_2_8 - 1.033566 s_1_2  + 1.033566 s_1_7  + 2000.000000 r_1_2_8 > 8.848875
s_2_8 + s_2_2 + 1000 r_2_2_8 >= 2
- s_2_8 - s_2_2 - 1000 r_2_2_8 >= -1001
t_2_8 - t_2_2 + 1000.000000 u_2_2_8 - 0.987836 s_2_2  + 0.987836 s_2_7  + 2000.000000 r_2_2_8 > 7.651518
s_1_8 + s_1_4 + 1000 r_1_4_8 >= 2
- s_1_8 - s_1_4 - 1000 r_1_4_8 >= -1001
t_1_8 - t_1_4 + 1000.000000 u_1_4_8 - 1.033566 s_1_4  + 1.033566 s_1_7  + 2000.000000 r_1_4_8 > 1.806589
s_2_8 + s_2_4 + 1000 r_2_4_8 >= 2
- s_2_8 - s_2_4 - 1000 r_2_4_8 >= -1001
t_2_8 - t_2_4 + 1000.000000 u_2_4_8 - 0.987836 s_2_4  + 0.987836 s_2_7  + 2000.000000 r_2_4_8 > 2.911964
s_1_8 + s_1_7 + 1000 r_1_7_8 >= 2
- s_1_8 - s_1_7 - 1000 r_1_7_8 >= -1001
t_1_8 - t_1_7 + 1000.000000 u_1_7_8 - 0.000000 s_1_7  + 2000.000000 r_1_7_8 > 12.181000
s_2_8 + s_2_7 + 1000 r_2_7_8 >= 2
- s_2_8 - s_2_7 - 1000 r_2_7_8 >= -1001
t_2_8 - t_2_7 + 1000.000000 u_2_7_8 - 0.000000 s_2_7  + 2000.000000 r_2_7_8 > 5.386514
Binary
s_1_1
s_2_1
s_1_2
s_2_2
s_1_3
s_2_3
s_1_4
s_2_4
s_1_5
s_2_5
s_1_6
s_2_6
s_1_7
s_2_7
s_1_8
s_2_8
u_1_1_2
r_1_1_2
u_2_1_2
r_2_1_2
u_1_1_3
r_1_1_3
u_2_1_3
r_2_1_3
u_1_1_4
r_1_1_4
u_2_1_4
r_2_1_4
u_1_1_5
r_1_1_5
u_2_1_5
r_2_1_5
u_1_2_3
r_1_2_3
u_2_2_3
r_2_2_3
u_1_2_4
r_1_2_4
u_2_2_4
r_2_2_4
u_1_2_5
r_1_2_5
u_2_2_5
r_2_2_5
u_1_2_8
r_1_2_8
u_2_2_8
r_2_2_8
u_1_3_4
r_1_3_4
u_2_3_4
r_2_3_4
u_1_3_5
r_1_3_5
u_2_3_5
r_2_3_5
u_1_4_5
r_1_4_5
u_2_4_5
r_2_4_5
u_1_4_8
r_1_4_8
u_2_4_8
r_2_4_8
u_1_5_7
r_1_5_7
u_2_5_7
r_2_5_7
u_1_7_8
r_1_7_8
u_2_7_8
r_2_7_8

End
